&BANDS
 outdir    = './tmp/',
 prefix    = 'Cu2N',
 filband   = 'Cu2N.bands',
/
EOF