 &input
  zasr='simple',  
  fildyn='Cu2N.dyn', 
  flfrc='Cu2N222.fc',
 /
EOF