&Input
	fildyn = 'Cu2N.dyn',
	fileig = 'phfreq&eigenvectors.Cu2N.txt',
	filxsf = 'dynmat.axsf',	
/
EOF