 &CONTROL
    prefix     = 'Cu2N',
    pseudo_dir = '../../pseudo',
    outdir     = './tmp',
/
 &SYSTEM    
    ibrav       = 0, 
	nat         = 5, 
	ntyp        = 2,
	occupations = 'smearing',
    ecutwfc     = 30.0,
	ecutrho     = 120.0,
	smearing    = 'gauss', 
	degauss     = 0.02,
	nspin       = 2,
	
    starting_magnetization(1) = 0.0,
    starting_magnetization(2) = 0.0,	
 /
 
 &ELECTRONS
	conv_thr = 1.0e-10
    mixing_beta = 0.7
 /

ATOMIC_SPECIES
 Cu 63.546 Cu.pbe-dn-kjpaw_psl.1.0.0.UPF
 N  14.007 N.pbe-n-kjpaw_psl.1.0.0.UPF
 
CELL_PARAMETERS (angstrom)
   3.707149092   0.000000000   0.000000000
   0.000000000   3.706688191   0.000000000
   0.000000000   0.000000000   3.707149092

ATOMIC_POSITIONS (angstrom)
Cu       0.000000000   0.000000000   0.000000000
Cu       1.853574546   1.853344096   0.000000000
Cu       0.000000000   1.853344096   1.760588164
Cu       1.853574546   0.000000000   1.760133520
N        0.000000000   1.853344096   3.698387417

K_POINTS automatic
   4 4 4  1 1 1