&input
	fildyn = 'Cu2N.dyn',
	asr = 'simple',
	filxsf = 'dynmat.axsf',	
/
EOF